logs/miss/max/miss-05-15-2.sol
# Objective value = 5
x0,1_2 0
x0,1_12 0
x0,1_14 0
x0,1_19 1
x0,2_2 0
x0,2_12 0
x0,2_14 0
x0,2_19 0
x0,3_2 0
x0,3_12 0
x0,3_14 0
x0,3_19 0
x0,4_2 0
x0,4_12 0
x0,4_14 0
x0,4_19 0
x1,2_2 0
x1,2_12 0
x1,2_14 0
x1,2_19 0
x1,3_2 0
x1,3_12 0
x1,3_14 0
x1,3_19 0
x1,4_2 0
x1,4_12 0
x1,4_14 0
x1,4_19 1
x2,3_2 1
x2,3_12 0
x2,3_14 0
x2,3_19 0
x2,4_2 0
x2,4_12 0
x2,4_14 1
x2,4_19 0
x3,4_2 0
x3,4_12 1
x3,4_14 0
x3,4_19 0
p0 0
p1 19
p2 24
p3 26
p4 38
